# Solution for model PDMTZ_aux
# Objective value = 3.9230863432253648e+02
ugi[6,101] 0
ugi[6,104] 0
ugi[6,203] 0
ugi[6,204] 0
ugi[6,205] 0
ugi[6,303] 0
ugi[6,304] 1
ugi[6,404] 0
ugi[6,405] 0
dgLi[6,101] 3.5550087210696630e+00
dgLi[6,104] 4.5051081431541649e+00
dgLi[6,203] 3.5550087210696630e+00
dgLi[6,204] 3.5550087210696519e+00
dgLi[6,205] 3.5550087210696630e+00
dgLi[6,303] 3.5550087210696630e+00
dgLi[6,304] 1.7560988988984485e+00
dgLi[6,404] 3.5550087210696630e+00
dgLi[6,405] 3.5550087210696630e+00
difgLi[6,101,0] 2.2893406948860267e+00
difgLi[6,101,1] 2.7197438918415031e+00
difgLi[6,104,0] 2.7634275004517406e+00
difgLi[6,104,1] 3.5580156559965106e+00
difgLi[6,203,0] 1.5400744903579096e+00
difgLi[6,203,1] 1.8262908969452667e+00
difgLi[6,204,0] 2.2893406948860076e+00
difgLi[6,204,1] 2.7197438918415031e+00
difgLi[6,205,0] 2.2893406948860076e+00
difgLi[6,205,1] 2.7197438918415031e+00
difgLi[6,303,0] 1.4629056595374113e+00
difgLi[6,303,1] 1.7309718541649608e+00
difgLi[6,304,0] 1.1417481768177469e+00
difgLi[6,304,1] 1.3342777030537860e+00
difgLi[6,404,0] 1.5400744903579096e+00
difgLi[6,404,1] 1.8262908969452667e+00
difgLi[6,405,0] 1.5400744903579380e+00
difgLi[6,405,1] 1.8262908969452667e+00
pgLi[6,101] 0
pgLi[6,104] 9.5009942208450182e-01
pgLi[6,203] 0
pgLi[6,204] 0
pgLi[6,205] 0
pgLi[6,303] 0
pgLi[6,304] 1.7560988988984485e+00
pgLi[6,404] 0
pgLi[6,405] 0
vgi[6,101] 0
vgi[6,104] 0
vgi[6,203] 0
vgi[6,204] 0
vgi[6,205] 0
vgi[6,303] 1
vgi[6,304] 0
vgi[6,404] 0
vgi[6,405] 0
dgRi[6,101] 3.5550087210696732e+00
dgRi[6,104] 4.5051960188814348e+00
dgRi[6,203] 3.5550087210696630e+00
dgRi[6,204] 3.5550087210696630e+00
dgRi[6,205] 3.5550087210696630e+00
dgRi[6,303] 1.7560817057666411e+00
dgRi[6,304] 3.5550087210696630e+00
dgRi[6,404] 3.5550087210696630e+00
dgRi[6,405] 3.5550087210696630e+00
difgRi[6,101,0] 2.2876211994964137e+00
difgRi[6,101,1] 2.7211912011166532e+00
difgRi[6,104,0] 2.7633565801706084e+00
difgRi[6,104,1] 3.5581820022910389e+00
difgRi[6,203,0] 1.5383549949682873e+00
difgRi[6,203,1] 1.8277382062204168e+00
difgRi[6,204,0] 2.2876211994963964e+00
difgRi[6,204,1] 2.7211912011166541e+00
difgRi[6,205,0] 2.2876200414080672e+00
difgRi[6,205,1] 2.7211912011166532e+00
difgRi[6,303,0] 1.1400286814281091e+00
difgRi[6,303,1] 1.3357250123289415e+00
difgRi[6,304,0] 1.4016894868194274e+00
difgRi[6,304,1] 1.7732231733795778e+00
difgRi[6,404,0] 1.5383549949682873e+00
difgRi[6,404,1] 1.8277382062204168e+00
difgRi[6,405,0] 1.5383549949683015e+00
difgRi[6,405,1] 1.8277382062204168e+00
pgRi[6,101] 0
pgRi[6,104] 9.5018729781177180e-01
pgRi[6,203] 0
pgRi[6,204] 0
pgRi[6,205] 0
pgRi[6,303] 1.7560817057666411e+00
pgRi[6,304] 0
pgRi[6,404] 0
pgRi[6,405] 0
zgij[6,101,104] 0
zgij[6,101,203] 0
zgij[6,101,204] 0
zgij[6,101,205] 0
zgij[6,101,303] 0
zgij[6,101,304] 0
zgij[6,101,404] 0
zgij[6,101,405] 0
zgij[6,104,101] 0
zgij[6,104,203] 0
zgij[6,104,204] 0
zgij[6,104,205] 0
zgij[6,104,303] 0
zgij[6,104,304] 0
zgij[6,104,404] 0
zgij[6,104,405] 0
zgij[6,203,101] 0
zgij[6,203,104] 0
zgij[6,203,204] 0
zgij[6,203,205] 0
zgij[6,203,303] 0
zgij[6,203,304] 0
zgij[6,203,404] 0
zgij[6,203,405] 0
zgij[6,204,101] 0
zgij[6,204,104] 0
zgij[6,204,203] 0
zgij[6,204,205] 0
zgij[6,204,303] 0
zgij[6,204,304] 0
zgij[6,204,404] 0
zgij[6,204,405] 0
zgij[6,205,101] 0
zgij[6,205,104] 0
zgij[6,205,203] 0
zgij[6,205,204] 0
zgij[6,205,303] 0
zgij[6,205,304] 0
zgij[6,205,404] 0
zgij[6,205,405] 0
zgij[6,303,101] 0
zgij[6,303,104] 0
zgij[6,303,203] 0
zgij[6,303,204] 0
zgij[6,303,205] 0
zgij[6,303,304] 0
zgij[6,303,404] 0
zgij[6,303,405] 0
zgij[6,304,101] 0
zgij[6,304,104] 0
zgij[6,304,203] 0
zgij[6,304,204] 0
zgij[6,304,205] 0
zgij[6,304,303] 1
zgij[6,304,404] 0
zgij[6,304,405] 0
zgij[6,404,101] 0
zgij[6,404,104] 0
zgij[6,404,203] 0
zgij[6,404,204] 0
zgij[6,404,205] 0
zgij[6,404,303] 0
zgij[6,404,304] 0
zgij[6,404,405] 0
zgij[6,405,101] 0
zgij[6,405,104] 0
zgij[6,405,203] 0
zgij[6,405,204] 0
zgij[6,405,205] 0
zgij[6,405,303] 0
zgij[6,405,304] 0
zgij[6,405,404] 0
sgi[6,101] 0
sgi[6,104] 0
sgi[6,203] 0
sgi[6,204] 0
sgi[6,205] 0
sgi[6,303] 1
sgi[6,304] 0
sgi[6,404] 0
sgi[6,405] 0
dgij[6,101,104] 9.6304483832321919e-01
dgij[6,101,203] 1.1660437810549897e+00
dgij[6,101,204] 0
dgij[6,101,205] 0
dgij[6,101,303] 1.2886679196832520e+00
dgij[6,101,304] 1.7990233872299675e+00
dgij[6,101,404] 1.1660437810549897e+00
dgij[6,101,405] 1.1660437810549897e+00
dgij[6,104,101] 9.6274490581656780e-01
dgij[6,104,203] 2.1201558628296002e+00
dgij[6,104,204] 9.6274490581658867e-01
dgij[6,104,205] 9.6274490581658179e-01
dgij[6,104,303] 2.2425559919349678e+00
dgij[6,104,304] 2.7521818258220243e+00
dgij[6,104,404] 2.1201567430516826e+00
dgij[6,104,405] 2.1201558628296007e+00
dgij[6,203,101] 1.1660437810549853e+00
dgij[6,203,104] 2.1202498524731297e+00
dgij[6,203,204] 1.1660437810549760e+00
dgij[6,203,205] 1.1660437810549853e+00
dgij[6,203,303] 1.2264072882511194e-01
dgij[6,203,304] 6.3304094261098232e-01
dgij[6,203,404] 0
dgij[6,203,405] 0
dgij[6,204,101] 0
dgij[6,204,104] 9.6304483832324028e-01
dgij[6,204,203] 1.1660437810549784e+00
dgij[6,204,205] 0
dgij[6,204,303] 1.2886679115839166e+00
dgij[6,204,304] 2.7714175302891877e+00
dgij[6,204,404] 1.1660437810549809e+00
dgij[6,204,405] 1.1660437810549533e+00
dgij[6,205,101] 0
dgij[6,205,104] 9.6304483832323318e-01
dgij[6,205,203] 1.1660437810549897e+00
dgij[6,205,204] 0
dgij[6,205,303] 1.2886679196832336e+00
dgij[6,205,304] 1.7990233872299317e+00
dgij[6,205,404] 1.1660437810549897e+00
dgij[6,205,405] 1.16604378105499
dgij[6,303,101] 1.7990233872299453e+00
dgij[6,303,104] 2.7522448605927177e+00
dgij[6,303,203] 6.3304094261099109e-01
dgij[6,303,204] 1.7990233872299273e+00
dgij[6,303,205] 1.7990233872299319e+00
dgij[6,303,304] 0
dgij[6,303,404] 6.3304094261098665e-01
dgij[6,303,405] 6.3304094261097776e-01
dgij[6,304,101] 1.2975046723097656e+00
dgij[6,304,104] 2.2450616436608981e+00
dgij[6,304,203] 1.4713699921847867e-01
dgij[6,304,204] 1.2975046723097365e+00
dgij[6,304,205] 1.2975046723097461e+00
dgij[6,304,303] 7.2140439045721927e-02
dgij[6,304,404] 1.4713699921847212e-01
dgij[6,304,405] 1.4713552100139127e-01
dgij[6,404,101] 1.1660437810550082e+00
dgij[6,404,104] 2.1202507465903109e+00
dgij[6,404,203] 0
dgij[6,404,204] 1.1660437810549809e+00
dgij[6,404,205] 1.1660437810549897e+00
dgij[6,404,303] 1.2264072882510757e-01
dgij[6,404,304] 6.3304094261097776e-01
dgij[6,404,405] 0
dgij[6,405,101] 1.1660437810549897e+00
dgij[6,405,104] 2.1202501484114973e+00
dgij[6,405,203] 0
dgij[6,405,204] 1.1660437810549531e+00
dgij[6,405,205] 1.1660437810549715e+00
dgij[6,405,303] 1.2264072882511194e-01
dgij[6,405,304] 6.3304094261101351e-01
dgij[6,405,404] 0
dgij[6,101,104,0] 4.7408680556570459e-01
dgij[6,101,104,1] 8.3827176415501015e-01
dgij[6,101,203,0] 7.4926620452811221e-01
dgij[6,101,203,1] 8.9345299489623642e-01
dgij[6,101,204,0] 0
dgij[6,101,204,1] 0
dgij[6,101,205,0] 0
dgij[6,101,205,1] 0
dgij[6,101,303,0] 8.2643503534859875e-01
dgij[6,101,303,1] 9.8877203767654243e-01
dgij[6,101,304,0] 1.1475925180683362e+00
dgij[6,101,304,1] 1.3854661887877171e+00
dgij[6,101,404,0] 7.4926620452811221e-01
dgij[6,101,404,1] 8.9345299489623642e-01
dgij[6,101,405,0] 7.4926620452811221e-01
dgij[6,101,405,1] 8.9345299489623642e-01
dgij[6,104,101,0] 4.7573538067419463e-01
dgij[6,104,101,1] 8.3699080117438029e-01
dgij[6,104,203,0] 1.2250015852023353e+00
dgij[6,104,203,1] 1.7304437960706167e+00
dgij[6,104,204,0] 4.7573538067423726e-01
dgij[6,104,204,1] 8.3699080117438029e-01
dgij[6,104,205,0] 4.7573538067422305e-01
dgij[6,104,205,1] 8.3699080117438029e-01
dgij[6,104,303,0] 1.3021704160227934e+00
dgij[6,104,303,1] 1.8257628388509226e+00
dgij[6,104,304,0] 1.6233278987425024e+00
dgij[6,104,304,1] 2.2224569899620974e+00
dgij[6,104,404,0] 1.2250015852023353e+00
dgij[6,104,404,1] 1.7304437960706167e+00
dgij[6,104,405,0] 1.2250015852023353e+00
dgij[6,104,405,1] 1.7304437960706167e+00
dgij[6,203,101,0] 7.4926620452810511e-01
dgij[6,203,101,1] 8.9345299489623642e-01
dgij[6,203,104,0] 1.2233530100938452e+00
dgij[6,203,104,1] 1.7317247590512466e+00
dgij[6,203,204,0] 7.4926620452809090e-01
dgij[6,203,204,1] 8.9345299489623642e-01
dgij[6,203,205,0] 7.4926620452810511e-01
dgij[6,203,205,1] 8.9345299489623642e-01
dgij[6,203,303,0] 7.7168830820486492e-02
dgij[6,203,303,1] 9.5319042780305965e-02
dgij[6,203,304,0] 3.9832631354017423e-01
dgij[6,203,304,1] 4.9201319389148068e-01
dgij[6,203,404,0] 0
dgij[6,203,404,1] 0
dgij[6,203,405,0] 0
dgij[6,203,405,1] 0
dgij[6,204,101,0] 0
dgij[6,204,101,1] 0
dgij[6,204,104,0] 4.7408680556574723e-01
dgij[6,204,104,1] 8.3827176415501015e-01
dgij[6,204,203,0] 7.4926620452809445e-01
dgij[6,204,203,1] 8.9345299489623642e-01
dgij[6,204,205,0] 0
dgij[6,204,205,1] 0
dgij[6,204,303,0] 8.2643503534857032e-01
dgij[6,204,303,1] 9.8877203767654243e-01
dgij[6,204,304,0] 1.1475925180682687e+00
dgij[6,204,304,1] 1.3854661887877171e+00
dgij[6,204,404,0] 0.749266204528098
dgij[6,204,404,1] 8.9345299489623642e-01
dgij[6,204,405,0] 7.4926620452805537e-01
dgij[6,204,405,1] 8.9345299489623642e-01
dgij[6,205,101,0] 0
dgij[6,205,101,1] 0
dgij[6,205,104,0] 0.474086805565733
dgij[6,205,104,1] 8.3827176415501015e-01
dgij[6,205,203,0] 7.4926620452811221e-01
dgij[6,205,203,1] 8.9345299489623642e-01
dgij[6,205,204,0] 0
dgij[6,205,204,1] 0
dgij[6,205,303,0] 8.2643503534857032e-01
dgij[6,205,303,1] 9.8877203767654243e-01
dgij[6,205,304,0] 1.1475925180682793e+00
dgij[6,205,304,1] 1.3854661887877171e+00
dgij[6,205,404,0] 7.4926620452811221e-01
dgij[6,205,404,1] 8.9345299489623642e-01
dgij[6,205,405,0] 7.4926620452811221e-01
dgij[6,205,405,1] 8.9345299489623642e-01
dgij[6,303,101,0] 1.1475925180683006e+00
dgij[6,303,101,1] 1.3854661887877171e+00
dgij[6,303,104,0] 1.6216793236340123e+00
dgij[6,303,104,1] 2.2237379529427272e+00
dgij[6,303,203,0] 3.9832631354018844e-01
dgij[6,303,203,1] 4.9201319389148068e-01
dgij[6,303,204,0] 1.1475925180682722e+00
dgij[6,303,204,1] 1.3854661887877171e+00
dgij[6,303,205,0] 1.1475925180682793e+00
dgij[6,303,205,1] 1.3854661887877171e+00
dgij[6,303,304,0] 0
dgij[6,303,304,1] 0
dgij[6,303,404,0] 3.9832631354018133e-01
dgij[6,303,404,1] 4.9201319389148068e-01
dgij[6,303,405,0] 3.9832631354016712e-01
dgij[6,303,405,1] 4.9201319389148068e-01
dgij[6,304,101,0] 8.8593171267699355e-01
dgij[6,304,101,1] 9.4796802773707534e-01
dgij[6,304,104,0] 1.3600185182426980e+00
dgij[6,304,104,1] 1.7862397918920856e+00
dgij[6,304,203,0] 0.13666550814886
dgij[6,304,203,1] 5.4515032840838966e-02
dgij[6,304,204,0] 8.8593171267695092e-01
dgij[6,304,204,1] 9.4796802773707534e-01
dgij[6,304,205,0] 8.8593171267696513e-01
dgij[6,304,205,1] 9.4796802773707534e-01
dgij[6,304,303,0] 5.9496677328374006e-02
dgij[6,304,303,1] 4.0804009939471121e-02
dgij[6,304,404,0] 1.3666550814885289e-01
dgij[6,304,404,1] 5.4515032840838966e-02
dgij[6,304,405,0] 0.13666550814886
dgij[6,304,405,1] 5.4515032840838966e-02
dgij[6,404,101,0] 7.4926620452814063e-01
dgij[6,404,101,1] 8.9345299489623642e-01
dgij[6,404,104,0] 1.2233530100938452e+00
dgij[6,404,104,1] 1.7317247590512466e+00
dgij[6,404,203,0] 0
dgij[6,404,203,1] 0
dgij[6,404,204,0] 0.749266204528098
dgij[6,404,204,1] 8.9345299489623642e-01
dgij[6,404,205,0] 7.4926620452811221e-01
dgij[6,404,205,1] 8.9345299489623642e-01
dgij[6,404,303,0] 7.7168830820479387e-02
dgij[6,404,303,1] 9.5319042780305965e-02
dgij[6,404,304,0] 3.9832631354016712e-01
dgij[6,404,304,1] 4.9201319389148068e-01
dgij[6,404,405,0] 0
dgij[6,404,405,1] 0
dgij[6,405,101,0] 7.4926620452811221e-01
dgij[6,405,101,1] 8.9345299489623642e-01
dgij[6,405,104,0] 1.2233530100938168e+00
dgij[6,405,104,1] 1.7317247590512466e+00
dgij[6,405,203,0] 0
dgij[6,405,203,1] 0
dgij[6,405,204,0] 7.4926620452805537e-01
dgij[6,405,204,1] 8.9345299489623642e-01
dgij[6,405,205,0] 7.4926620452808379e-01
dgij[6,405,205,1] 8.9345299489623642e-01
dgij[6,405,303,0] 7.7168830820486492e-02
dgij[6,405,303,1] 9.5319042780305965e-02
dgij[6,405,304,0] 3.9832631354022396e-01
dgij[6,405,304,1] 4.9201319389148068e-01
dgij[6,405,404,0] 0
dgij[6,405,404,1] 0
pgij[6,101,104] 0
pgij[6,101,203] 0
pgij[6,101,204] 0
pgij[6,101,205] 0
pgij[6,101,303] 0
pgij[6,101,304] 0
pgij[6,101,404] 0
pgij[6,101,405] 0
pgij[6,104,101] 0
pgij[6,104,203] 0
pgij[6,104,204] 0
pgij[6,104,205] 0
pgij[6,104,303] 0
pgij[6,104,304] 0
pgij[6,104,404] 0
pgij[6,104,405] 0
pgij[6,203,101] 0
pgij[6,203,104] 0
pgij[6,203,204] 0
pgij[6,203,205] 0
pgij[6,203,303] 0
pgij[6,203,304] 0
pgij[6,203,404] 0
pgij[6,203,405] 0
pgij[6,204,101] 0
pgij[6,204,104] 0
pgij[6,204,203] 0
pgij[6,204,205] 0
pgij[6,204,303] 0
pgij[6,204,304] 0
pgij[6,204,404] 0
pgij[6,204,405] 0
pgij[6,205,101] 0
pgij[6,205,104] 0
pgij[6,205,203] 0
pgij[6,205,204] 0
pgij[6,205,303] 0
pgij[6,205,304] 0
pgij[6,205,404] 0
pgij[6,205,405] 0
pgij[6,303,101] 0
pgij[6,303,104] 0
pgij[6,303,203] 0
pgij[6,303,204] 0
pgij[6,303,205] 0
pgij[6,303,304] 0
pgij[6,303,404] 0
pgij[6,303,405] 0
pgij[6,304,101] 0
pgij[6,304,104] 0
pgij[6,304,203] 0
pgij[6,304,204] 0
pgij[6,304,205] 0
pgij[6,304,303] 7.2140439045721927e-02
pgij[6,304,404] 0
pgij[6,304,405] 0
pgij[6,404,101] 0
pgij[6,404,104] 0
pgij[6,404,203] 0
pgij[6,404,204] 0
pgij[6,404,205] 0
pgij[6,404,303] 0
pgij[6,404,304] 0
pgij[6,404,405] 0
pgij[6,405,101] 0
pgij[6,405,104] 0
pgij[6,405,203] 0
pgij[6,405,204] 0
pgij[6,405,205] 0
pgij[6,405,303] 0
pgij[6,405,304] 0
pgij[6,405,404] 0
dLR[6] 2.1682611452688292e+00
difLR[6,0] 1.7194953896222387e-03
difLR[6,1] 1.4473092751501326e-03
dRL[0,6] 3.1608267539555126e+01
dRL[0,21] 0
dRL[6,0] 3.1608243878325851e+01
dRL[6,21] 3.1608243878325851e+01
dRL[21,0] 0
dRL[21,6] 3.1608267187434357e+01
difRL[0,6,0] 2.0097673048158029e+01
difRL[0,6,1] 2.4396026634447054e+01
difRL[0,21,0] 0
difRL[0,21,1] 0
difRL[6,0,0] 2.0099392543547651e+01
difRL[6,0,1] 2.4394579325171904e+01
difRL[6,21,0] 2.0099392543547651e+01
difRL[6,21,1] 2.4394579325171904e+01
difRL[21,0,0] 0
difRL[21,0,1] 0
difRL[21,6,0] 2.0097673048158029e+01
difRL[21,6,1] 2.4396026634447054e+01
xL[0,0] 50
xL[0,1] 50
xL[6,0] 7.0097673048158029e+01
xL[6,1] 7.4396026634447054e+01
xL[21,0] 50
xL[21,1] 50
xR[0,0] 50
xR[0,1] 50
xR[6,0] 7.0099392543547651e+01
xR[6,1] 74.3945793251719
xR[21,0] 50
xR[21,1] 50
Rgi[6,101,0] 7.2387013743044065e+01
Rgi[6,101,1] 7.7115770526288557e+01
Rgi[6,104,0] 7.2861100548609770e+01
Rgi[6,104,1] 7.7954042290443567e+01
Rgi[6,203,0] 7.1637747538515939e+01
Rgi[6,203,1] 7.6222317531392321e+01
Rgi[6,204,0] 7.2387013743044037e+01
Rgi[6,204,1] 7.7115770526288557e+01
Rgi[6,205,0] 7.2387013743044037e+01
Rgi[6,205,1] 7.7115770526288557e+01
Rgi[6,303,0] 7.1560578707695456e+01
Rgi[6,303,1] 7.6126998488612017e+01
Rgi[6,304,0] 7.1239421224975757e+01
Rgi[6,304,1] 7.5730304337500840e+01
Rgi[6,404,0] 7.1637747538515939e+01
Rgi[6,404,1] 7.6222317531392321e+01
Rgi[6,405,0] 7.1637747538515953e+01
Rgi[6,405,1] 7.6222317531392321e+01
rhogi[6,101] 0
rhogi[6,104] 9.7458063682310581e-02
rhogi[6,203] 0
rhogi[6,204] 1.0000000000000142e+00
rhogi[6,205] 9.9999999999999289e-01
rhogi[6,303] 1.9373269652874114e-01
rhogi[6,304] 9.9999999999999645e-01
rhogi[6,404] 1.0000000000000071e+00
rhogi[6,405] 1
Lgi[6,101,0] 7.2387013743044065e+01
Lgi[6,101,1] 7.7115770526288557e+01
Lgi[6,104,0] 7.2862749123718260e+01
Lgi[6,104,1] 7.7952761327462937e+01
Lgi[6,203,0] 7.1637747538515939e+01
Lgi[6,203,1] 7.6222317531392321e+01
Lgi[6,204,0] 7.2387013743044037e+01
Lgi[6,204,1] 7.7115770526288557e+01
Lgi[6,205,0] 7.2387013743044037e+01
Lgi[6,205,1] 7.7115770526288557e+01
Lgi[6,303,0] 7.1239421224975757e+01
Lgi[6,303,1] 7.5730304337500840e+01
Lgi[6,304,0] 7.1501082030367087e+01
Lgi[6,304,1] 7.6167802498551481e+01
Lgi[6,404,0] 7.1637747538515939e+01
Lgi[6,404,1] 7.6222317531392321e+01
Lgi[6,405,0] 7.1637747538515953e+01
Lgi[6,405,1] 7.6222317531392321e+01
landagi[6,101] 0
landagi[6,104] 9.8264833513511007e-02
landagi[6,203] 0
landagi[6,204] 1.0000000000000142e+00
landagi[6,205] 9.9999999999999289e-01
landagi[6,303] 1
landagi[6,304] 8.1605966880048442e-01
landagi[6,404] 1.0000000000000071e+00
landagi[6,405] 1
mingi[6,101] 0
mingi[6,104] 8.0676983120042678e-04
mingi[6,203] 0
mingi[6,204] 0
mingi[6,205] 0
mingi[6,303] 8.0626730347126063e-01
mingi[6,304] 0
mingi[6,404] 0
mingi[6,405] 0
maxgi[6,101] 0
maxgi[6,104] 0
maxgi[6,203] 0
maxgi[6,204] 0
maxgi[6,205] 0
maxgi[6,303] 0
maxgi[6,304] 1.8394033119951658e-01
maxgi[6,404] 0
maxgi[6,405] 0
entrygi[6,101] 0
entrygi[6,104] 1
entrygi[6,203] 1
entrygi[6,204] 1
entrygi[6,205] 1
entrygi[6,303] 1
entrygi[6,304] 0
entrygi[6,404] 1
entrygi[6,405] 1
mugi[6,101] 0
mugi[6,104] 0
mugi[6,203] 0
mugi[6,204] 0
mugi[6,205] 0
mugi[6,303] 1
mugi[6,304] 1
mugi[6,404] 0
mugi[6,405] 0
pgi[6,101] 0
pgi[6,104] 0
pgi[6,203] 0
pgi[6,204] 0
pgi[6,205] 0
pgi[6,303] 8.0626730347126063e-01
pgi[6,304] 1.8394033119951658e-01
pgi[6,404] 0
pgi[6,405] 0
alphagi[6,101] 0
alphagi[6,104] 8.0676983120042678e-04
alphagi[6,203] 0
alphagi[6,204] 0
alphagi[6,205] 0
alphagi[6,303] 8.0626730347126063e-01
alphagi[6,304] 1.8394033119951658e-01
alphagi[6,404] 0
alphagi[6,405] 0
